00:00.0 clingo version 5.5.1
00:00.0 Reading from ...ols/../encodings/CTW_nat_optimal_V1.lp ...
00:32.110 Solving...
29:59.988 UNKNOWN
29:59.988 
29:59.988 TIME LIMIT   : 1
29:59.988 Models       : 0+
29:59.988 Calls        : 1
29:59.988 Time         : 1800.000s (Solving: 1767.88s 1st Model: 0.00s Unsat: 0.00s)
29:59.988 CPU Time     : 1799.950s
